Gurobi Optimizer version 9.1.2 build v9.1.2rc0 (linux64)
Thread count: 36 physical cores, 72 logical processors, using up to 32 threads
Optimize a model with 12 rows, 57 columns and 590 nonzeros
Model fingerprint: 0xf32eec78
Model has 47 quadratic constraints
Coefficient statistics:
  Matrix range     [2e-05, 3e+00]
  QMatrix range    [1e+00, 1e+00]
  QLMatrix range   [1e+00, 1e+00]
  Objective range  [8e-03, 7e-01]
  Bounds range     [1e+00, 1e+00]
  RHS range        [1e+00, 1e+00]
Presolve removed 9 rows and 0 columns

Continuous model is non-convex -- solving as a MIP.

Presolve removed 9 rows and 0 columns
Presolve time: 0.00s
Presolved: 189 rows, 57 columns, 443 nonzeros
Presolved model has 47 bilinear constraint(s)
Variable types: 57 continuous, 0 integer (0 binary)

Root relaxation: objective -1.743721e+00, 44 iterations, 0.00 seconds

    Nodes    |    Current Node    |     Objective Bounds      |     Work
 Expl Unexpl |  Obj  Depth IntInf | Incumbent    BestBd   Gap | It/Node Time

     0     0   -1.74372    0   38          -   -1.74372      -     -    0s
H    0     0                       0.6147548   -1.74372   384%     -    0s
     0     0   -1.64739    0    1    0.61475   -1.64739   368%     -    0s
H    0     0                      -1.6450460   -1.64739  0.14%     -    0s
     0     0     cutoff    0        -1.64505   -1.64505  0.00%     -    0s

Cutting planes:
  RLT: 25
  BQP: 3

Explored 1 nodes (76 simplex iterations) in 0.01 seconds
Thread count was 32 (of 72 available processors)

Solution count 2: -1.64505 0.614755 
No other solutions better than -1.64505

Optimal solution found (tolerance 1.00e-04)
Best objective -1.645045978473e+00, best bound -1.645045978473e+00, gap 0.0000%

User-callback calls 78, time in user-callback 0.00 sec
Gurobi Optimizer version 9.1.2 build v9.1.2rc0 (linux64)
Thread count: 36 physical cores, 72 logical processors, using up to 32 threads
Optimize a model with 24 rows, 120 columns and 2480 nonzeros
Model fingerprint: 0xff17a24f
Model has 100 quadratic constraints
Coefficient statistics:
  Matrix range     [8e-06, 4e+00]
  QMatrix range    [1e+00, 1e+00]
  QLMatrix range   [1e+00, 1e+00]
  Objective range  [3e-03, 9e-01]
  Bounds range     [1e+00, 1e+00]
  RHS range        [1e+00, 1e+00]
Presolve removed 17 rows and 0 columns

Continuous model is non-convex -- solving as a MIP.

Presolve removed 17 rows and 0 columns
Presolve time: 0.00s
Presolved: 407 rows, 120 columns, 1232 nonzeros
Presolved model has 100 bilinear constraint(s)
Variable types: 120 continuous, 0 integer (0 binary)

Root relaxation: objective -5.086621e+00, 132 iterations, 0.00 seconds

    Nodes    |    Current Node    |     Objective Bounds      |     Work
 Expl Unexpl |  Obj  Depth IntInf | Incumbent    BestBd   Gap | It/Node Time

     0     0   -5.08662    0   92          -   -5.08662      -     -    0s
H    0     0                       1.7639837   -5.08662   388%     -    0s
     0     0   -3.45799    0  100    1.76398   -3.45799   296%     -    0s
H    0     0                       0.7361788   -3.45799   570%     -    0s
     0     0   -3.45154    0  100    0.73618   -3.45154   569%     -    0s
     0     0   -3.02188    0  100    0.73618   -3.02188   510%     -    0s
H    0     0                      -0.0148165   -3.02188      -     -    0s
     0     0   -2.99718    0  100   -0.01482   -2.99718      -     -    0s
     0     0   -2.82560    0  100   -0.01482   -2.82560      -     -    0s
H    0     0                      -0.0510784   -2.82560  5432%     -    0s
     0     0   -2.82442    0  100   -0.05108   -2.82442  5430%     -    0s
     0     0   -2.80685    0  100   -0.05108   -2.80685  5395%     -    0s
     0     0   -2.80468    0  100   -0.05108   -2.80468  5391%     -    0s
     0     0   -2.80034    0  100   -0.05108   -2.80034  5382%     -    0s
     0     0   -2.80013    0  100   -0.05108   -2.80013  5382%     -    0s
     0     0   -2.79963    0  100   -0.05108   -2.79963  5381%     -    0s
H    0     0                      -0.5718382   -2.79963   390%     -    0s
H    0     0                      -1.1074408   -2.79963   153%     -    0s
H    0     0                      -1.2250185   -2.79963   129%     -    0s
     0     2   -2.79963    0  100   -1.22502   -2.79963   129%     -    0s
*  878   990              20      -2.4050841   -2.43523  1.25%  32.1    0s

Cutting planes:
  RLT: 80
  BQP: 15
  PSD: 15

Explored 1535 nodes (31905 simplex iterations) in 0.57 seconds
Thread count was 32 (of 72 available processors)

Solution count 8: -2.40508 -1.22502 -1.10744 ... 1.76398
No other solutions better than -2.40508

Optimal solution found (tolerance 1.00e-04)
Best objective -2.405084132064e+00, best bound -2.405084132064e+00, gap 0.0000%

User-callback calls 3325, time in user-callback 0.00 sec



objective value: -2.4050841320639273
objective bound: -2.4050841320639273
x_opt: [0.0, 1.0, 1.0, 0.45126240317751426, 1.0, 0.0, 0.07440911739482675, 0.0, 0.1789385025569172, 0.9999999999999999, 5.15313669285835e-18, 0.0026198179707326947, 1.0, 1.0, 1.0, 1.1169823475442459e-17, 1.2172922243228364e-17, 5.15313669285835e-18, 0.0, 0.0]
GUROBI solution time: 0.5722200870513916




